0 47 50
1 47 51
2 54 54
3 40 56
4 55 55
5 48 55
6 54 55
7 52 54
8 52 53
9 52 52
10 46 49
11 49 50
12 30 50
13 44 47
14 43 47
15 41 47
16 40 43
17 45 45
18 34 44
19 43 43
20 35 42
21 33 40
22 30 38
23 36 39
24 38 38
25 32 38
26 15 38
27 35 37
28 30 36
29 24 34
30 22 32
31 4 29
32 22 29
33 19 26
34 10 27
35 18 24
36 21 22
37 8 21
38 12 21
39 18 19
40 11 17
41 15 15
42 11 14
43 4 11
44 5 10
45 2 9
46 7 8
47 7 7
48 7 7
49 5 5
50 5 6
51 6 6
52 2 2
53 1 1

